NAME : cluster_netgen
COMMENT : cl=6
TYPE : TSP
DIMENSION : 50
EDGE_WEIGHT_TYPE : EUC_2D
NODE_COORD_SECTION
1 581667 400476
2 573814 411316
3 573894 417397
4 677679 506127
5 716319 494012
6 633067 458521
7 630825 476813
8 634106 416018
9 734145 268699
10 754566 182703
11 795213 146935
12 693297 233000
13 817011 219456
14 751889 273356
15 675596 187555
16 661703 151452
17 126661 970587
18 116492 965461
19 77813 963458
20 138862 948490
21 78865 937534
22 152281 960466
23 138131 970315
24 93750 951193
25 291359 152183
26 240743 200539
27 333368 66219
28 296396 145235
29 360801 76788
30 322506 192841
31 371555 263625
32 401320 170119
33 325618 159620
34 446084 191568
35 959260 716974
36 930036 686656
37 926513 703472
38 975865 738449
39 986287 736748
40 972863 702163
41 966042 676492
42 959624 544892
43 282612 571581
44 305463 662678
45 348030 615893
46 171770 532711
47 225906 591302
48 269592 664665
49 249471 551048
50 291139 596396

EOF
